% Auto-generated by scripts/generate_dzn.py
% problem_type   = polyominoes
% instance       = polyominoes_61
% source_json    = instances_json/0_low_blowup/polyominoes_61.json
% blowup         = 0.6310272536687631
% representation = NFA

mode = 1;

size = 6;
tiles = 4;
n_expressions = 4;
Q = 196;
S = 5;
q0 = [1, 1, 1, 1];
F = [{12}, {14}, {38}, {10}];
weights = [1, 5, 4, 3, 9, 5, 10, 3, 5, 6, 4, 4, 2, 1, 4, 10, 3, 10, 10, 4, 2, 5, 9, 8, 3, 2, 7, 7, 1, 3, 10, 2, 1, 7, 1, 10];
d_dfa = array3d(1..4, 1..196, 1..5, [
  % k = 1
    0, 0, 0, 0, 0,
    0, 0, 0, 0, 0,
    0, 0, 0, 0, 0,
    0, 0, 0, 0, 0,
    0, 0, 0, 0, 0,
    0, 0, 0, 0, 0,
    0, 0, 0, 0, 0,
    0, 0, 0, 0, 0,
    0, 0, 0, 0, 0,
    0, 0, 0, 0, 0,
    0, 0, 0, 0, 0,
    0, 0, 0, 0, 0,
    0, 0, 0, 0, 0,
    0, 0, 0, 0, 0,
    0, 0, 0, 0, 0,
    0, 0, 0, 0, 0,
    0, 0, 0, 0, 0,
    0, 0, 0, 0, 0,
    0, 0, 0, 0, 0,
    0, 0, 0, 0, 0,
    0, 0, 0, 0, 0,
    0, 0, 0, 0, 0,
    0, 0, 0, 0, 0,
    0, 0, 0, 0, 0,
    0, 0, 0, 0, 0,
    0, 0, 0, 0, 0,
    0, 0, 0, 0, 0,
    0, 0, 0, 0, 0,
    0, 0, 0, 0, 0,
    0, 0, 0, 0, 0,
    0, 0, 0, 0, 0,
    0, 0, 0, 0, 0,
    0, 0, 0, 0, 0,
    0, 0, 0, 0, 0,
    0, 0, 0, 0, 0,
    0, 0, 0, 0, 0,
    0, 0, 0, 0, 0,
    0, 0, 0, 0, 0,
    0, 0, 0, 0, 0,
    0, 0, 0, 0, 0,
    0, 0, 0, 0, 0,
    0, 0, 0, 0, 0,
    0, 0, 0, 0, 0,
    0, 0, 0, 0, 0,
    0, 0, 0, 0, 0,
    0, 0, 0, 0, 0,
    0, 0, 0, 0, 0,
    0, 0, 0, 0, 0,
    0, 0, 0, 0, 0,
    0, 0, 0, 0, 0,
    0, 0, 0, 0, 0,
    0, 0, 0, 0, 0,
    0, 0, 0, 0, 0,
    0, 0, 0, 0, 0,
    0, 0, 0, 0, 0,
    0, 0, 0, 0, 0,
    0, 0, 0, 0, 0,
    0, 0, 0, 0, 0,
    0, 0, 0, 0, 0,
    0, 0, 0, 0, 0,
    0, 0, 0, 0, 0,
    0, 0, 0, 0, 0,
    0, 0, 0, 0, 0,
    0, 0, 0, 0, 0,
    0, 0, 0, 0, 0,
    0, 0, 0, 0, 0,
    0, 0, 0, 0, 0,
    0, 0, 0, 0, 0,
    0, 0, 0, 0, 0,
    0, 0, 0, 0, 0,
    0, 0, 0, 0, 0,
    0, 0, 0, 0, 0,
    0, 0, 0, 0, 0,
    0, 0, 0, 0, 0,
    0, 0, 0, 0, 0,
    0, 0, 0, 0, 0,
    0, 0, 0, 0, 0,
    0, 0, 0, 0, 0,
    0, 0, 0, 0, 0,
    0, 0, 0, 0, 0,
    0, 0, 0, 0, 0,
    0, 0, 0, 0, 0,
    0, 0, 0, 0, 0,
    0, 0, 0, 0, 0,
    0, 0, 0, 0, 0,
    0, 0, 0, 0, 0,
    0, 0, 0, 0, 0,
    0, 0, 0, 0, 0,
    0, 0, 0, 0, 0,
    0, 0, 0, 0, 0,
    0, 0, 0, 0, 0,
    0, 0, 0, 0, 0,
    0, 0, 0, 0, 0,
    0, 0, 0, 0, 0,
    0, 0, 0, 0, 0,
    0, 0, 0, 0, 0,
    0, 0, 0, 0, 0,
    0, 0, 0, 0, 0,
    0, 0, 0, 0, 0,
    0, 0, 0, 0, 0,
    0, 0, 0, 0, 0,
    0, 0, 0, 0, 0,
    0, 0, 0, 0, 0,
    0, 0, 0, 0, 0,
    0, 0, 0, 0, 0,
    0, 0, 0, 0, 0,
    0, 0, 0, 0, 0,
    0, 0, 0, 0, 0,
    0, 0, 0, 0, 0,
    0, 0, 0, 0, 0,
    0, 0, 0, 0, 0,
    0, 0, 0, 0, 0,
    0, 0, 0, 0, 0,
    0, 0, 0, 0, 0,
    0, 0, 0, 0, 0,
    0, 0, 0, 0, 0,
    0, 0, 0, 0, 0,
    0, 0, 0, 0, 0,
    0, 0, 0, 0, 0,
    0, 0, 0, 0, 0,
    0, 0, 0, 0, 0,
    0, 0, 0, 0, 0,
    0, 0, 0, 0, 0,
    0, 0, 0, 0, 0,
    0, 0, 0, 0, 0,
    0, 0, 0, 0, 0,
    0, 0, 0, 0, 0,
    0, 0, 0, 0, 0,
    0, 0, 0, 0, 0,
    0, 0, 0, 0, 0,
    0, 0, 0, 0, 0,
    0, 0, 0, 0, 0,
    0, 0, 0, 0, 0,
    0, 0, 0, 0, 0,
    0, 0, 0, 0, 0,
    0, 0, 0, 0, 0,
    0, 0, 0, 0, 0,
    0, 0, 0, 0, 0,
    0, 0, 0, 0, 0,
    0, 0, 0, 0, 0,
    0, 0, 0, 0, 0,
    0, 0, 0, 0, 0,
    0, 0, 0, 0, 0,
    0, 0, 0, 0, 0,
    0, 0, 0, 0, 0,
    0, 0, 0, 0, 0,
    0, 0, 0, 0, 0,
    0, 0, 0, 0, 0,
    0, 0, 0, 0, 0,
    0, 0, 0, 0, 0,
    0, 0, 0, 0, 0,
    0, 0, 0, 0, 0,
    0, 0, 0, 0, 0,
    0, 0, 0, 0, 0,
    0, 0, 0, 0, 0,
    0, 0, 0, 0, 0,
    0, 0, 0, 0, 0,
    0, 0, 0, 0, 0,
    0, 0, 0, 0, 0,
    0, 0, 0, 0, 0,
    0, 0, 0, 0, 0,
    0, 0, 0, 0, 0,
    0, 0, 0, 0, 0,
    0, 0, 0, 0, 0,
    0, 0, 0, 0, 0,
    0, 0, 0, 0, 0,
    0, 0, 0, 0, 0,
    0, 0, 0, 0, 0,
    0, 0, 0, 0, 0,
    0, 0, 0, 0, 0,
    0, 0, 0, 0, 0,
    0, 0, 0, 0, 0,
    0, 0, 0, 0, 0,
    0, 0, 0, 0, 0,
    0, 0, 0, 0, 0,
    0, 0, 0, 0, 0,
    0, 0, 0, 0, 0,
    0, 0, 0, 0, 0,
    0, 0, 0, 0, 0,
    0, 0, 0, 0, 0,
    0, 0, 0, 0, 0,
    0, 0, 0, 0, 0,
    0, 0, 0, 0, 0,
    0, 0, 0, 0, 0,
    0, 0, 0, 0, 0,
    0, 0, 0, 0, 0,
    0, 0, 0, 0, 0,
    0, 0, 0, 0, 0,
    0, 0, 0, 0, 0,
    0, 0, 0, 0, 0,
    0, 0, 0, 0, 0,
    0, 0, 0, 0, 0,
    0, 0, 0, 0, 0,
    0, 0, 0, 0, 0,
    0, 0, 0, 0, 0,
    0, 0, 0, 0, 0,

  % k = 2
    0, 0, 0, 0, 0,
    0, 0, 0, 0, 0,
    0, 0, 0, 0, 0,
    0, 0, 0, 0, 0,
    0, 0, 0, 0, 0,
    0, 0, 0, 0, 0,
    0, 0, 0, 0, 0,
    0, 0, 0, 0, 0,
    0, 0, 0, 0, 0,
    0, 0, 0, 0, 0,
    0, 0, 0, 0, 0,
    0, 0, 0, 0, 0,
    0, 0, 0, 0, 0,
    0, 0, 0, 0, 0,
    0, 0, 0, 0, 0,
    0, 0, 0, 0, 0,
    0, 0, 0, 0, 0,
    0, 0, 0, 0, 0,
    0, 0, 0, 0, 0,
    0, 0, 0, 0, 0,
    0, 0, 0, 0, 0,
    0, 0, 0, 0, 0,
    0, 0, 0, 0, 0,
    0, 0, 0, 0, 0,
    0, 0, 0, 0, 0,
    0, 0, 0, 0, 0,
    0, 0, 0, 0, 0,
    0, 0, 0, 0, 0,
    0, 0, 0, 0, 0,
    0, 0, 0, 0, 0,
    0, 0, 0, 0, 0,
    0, 0, 0, 0, 0,
    0, 0, 0, 0, 0,
    0, 0, 0, 0, 0,
    0, 0, 0, 0, 0,
    0, 0, 0, 0, 0,
    0, 0, 0, 0, 0,
    0, 0, 0, 0, 0,
    0, 0, 0, 0, 0,
    0, 0, 0, 0, 0,
    0, 0, 0, 0, 0,
    0, 0, 0, 0, 0,
    0, 0, 0, 0, 0,
    0, 0, 0, 0, 0,
    0, 0, 0, 0, 0,
    0, 0, 0, 0, 0,
    0, 0, 0, 0, 0,
    0, 0, 0, 0, 0,
    0, 0, 0, 0, 0,
    0, 0, 0, 0, 0,
    0, 0, 0, 0, 0,
    0, 0, 0, 0, 0,
    0, 0, 0, 0, 0,
    0, 0, 0, 0, 0,
    0, 0, 0, 0, 0,
    0, 0, 0, 0, 0,
    0, 0, 0, 0, 0,
    0, 0, 0, 0, 0,
    0, 0, 0, 0, 0,
    0, 0, 0, 0, 0,
    0, 0, 0, 0, 0,
    0, 0, 0, 0, 0,
    0, 0, 0, 0, 0,
    0, 0, 0, 0, 0,
    0, 0, 0, 0, 0,
    0, 0, 0, 0, 0,
    0, 0, 0, 0, 0,
    0, 0, 0, 0, 0,
    0, 0, 0, 0, 0,
    0, 0, 0, 0, 0,
    0, 0, 0, 0, 0,
    0, 0, 0, 0, 0,
    0, 0, 0, 0, 0,
    0, 0, 0, 0, 0,
    0, 0, 0, 0, 0,
    0, 0, 0, 0, 0,
    0, 0, 0, 0, 0,
    0, 0, 0, 0, 0,
    0, 0, 0, 0, 0,
    0, 0, 0, 0, 0,
    0, 0, 0, 0, 0,
    0, 0, 0, 0, 0,
    0, 0, 0, 0, 0,
    0, 0, 0, 0, 0,
    0, 0, 0, 0, 0,
    0, 0, 0, 0, 0,
    0, 0, 0, 0, 0,
    0, 0, 0, 0, 0,
    0, 0, 0, 0, 0,
    0, 0, 0, 0, 0,
    0, 0, 0, 0, 0,
    0, 0, 0, 0, 0,
    0, 0, 0, 0, 0,
    0, 0, 0, 0, 0,
    0, 0, 0, 0, 0,
    0, 0, 0, 0, 0,
    0, 0, 0, 0, 0,
    0, 0, 0, 0, 0,
    0, 0, 0, 0, 0,
    0, 0, 0, 0, 0,
    0, 0, 0, 0, 0,
    0, 0, 0, 0, 0,
    0, 0, 0, 0, 0,
    0, 0, 0, 0, 0,
    0, 0, 0, 0, 0,
    0, 0, 0, 0, 0,
    0, 0, 0, 0, 0,
    0, 0, 0, 0, 0,
    0, 0, 0, 0, 0,
    0, 0, 0, 0, 0,
    0, 0, 0, 0, 0,
    0, 0, 0, 0, 0,
    0, 0, 0, 0, 0,
    0, 0, 0, 0, 0,
    0, 0, 0, 0, 0,
    0, 0, 0, 0, 0,
    0, 0, 0, 0, 0,
    0, 0, 0, 0, 0,
    0, 0, 0, 0, 0,
    0, 0, 0, 0, 0,
    0, 0, 0, 0, 0,
    0, 0, 0, 0, 0,
    0, 0, 0, 0, 0,
    0, 0, 0, 0, 0,
    0, 0, 0, 0, 0,
    0, 0, 0, 0, 0,
    0, 0, 0, 0, 0,
    0, 0, 0, 0, 0,
    0, 0, 0, 0, 0,
    0, 0, 0, 0, 0,
    0, 0, 0, 0, 0,
    0, 0, 0, 0, 0,
    0, 0, 0, 0, 0,
    0, 0, 0, 0, 0,
    0, 0, 0, 0, 0,
    0, 0, 0, 0, 0,
    0, 0, 0, 0, 0,
    0, 0, 0, 0, 0,
    0, 0, 0, 0, 0,
    0, 0, 0, 0, 0,
    0, 0, 0, 0, 0,
    0, 0, 0, 0, 0,
    0, 0, 0, 0, 0,
    0, 0, 0, 0, 0,
    0, 0, 0, 0, 0,
    0, 0, 0, 0, 0,
    0, 0, 0, 0, 0,
    0, 0, 0, 0, 0,
    0, 0, 0, 0, 0,
    0, 0, 0, 0, 0,
    0, 0, 0, 0, 0,
    0, 0, 0, 0, 0,
    0, 0, 0, 0, 0,
    0, 0, 0, 0, 0,
    0, 0, 0, 0, 0,
    0, 0, 0, 0, 0,
    0, 0, 0, 0, 0,
    0, 0, 0, 0, 0,
    0, 0, 0, 0, 0,
    0, 0, 0, 0, 0,
    0, 0, 0, 0, 0,
    0, 0, 0, 0, 0,
    0, 0, 0, 0, 0,
    0, 0, 0, 0, 0,
    0, 0, 0, 0, 0,
    0, 0, 0, 0, 0,
    0, 0, 0, 0, 0,
    0, 0, 0, 0, 0,
    0, 0, 0, 0, 0,
    0, 0, 0, 0, 0,
    0, 0, 0, 0, 0,
    0, 0, 0, 0, 0,
    0, 0, 0, 0, 0,
    0, 0, 0, 0, 0,
    0, 0, 0, 0, 0,
    0, 0, 0, 0, 0,
    0, 0, 0, 0, 0,
    0, 0, 0, 0, 0,
    0, 0, 0, 0, 0,
    0, 0, 0, 0, 0,
    0, 0, 0, 0, 0,
    0, 0, 0, 0, 0,
    0, 0, 0, 0, 0,
    0, 0, 0, 0, 0,
    0, 0, 0, 0, 0,
    0, 0, 0, 0, 0,
    0, 0, 0, 0, 0,
    0, 0, 0, 0, 0,
    0, 0, 0, 0, 0,
    0, 0, 0, 0, 0,
    0, 0, 0, 0, 0,
    0, 0, 0, 0, 0,
    0, 0, 0, 0, 0,
    0, 0, 0, 0, 0,
    0, 0, 0, 0, 0,
    0, 0, 0, 0, 0,

  % k = 3
    0, 0, 0, 0, 0,
    0, 0, 0, 0, 0,
    0, 0, 0, 0, 0,
    0, 0, 0, 0, 0,
    0, 0, 0, 0, 0,
    0, 0, 0, 0, 0,
    0, 0, 0, 0, 0,
    0, 0, 0, 0, 0,
    0, 0, 0, 0, 0,
    0, 0, 0, 0, 0,
    0, 0, 0, 0, 0,
    0, 0, 0, 0, 0,
    0, 0, 0, 0, 0,
    0, 0, 0, 0, 0,
    0, 0, 0, 0, 0,
    0, 0, 0, 0, 0,
    0, 0, 0, 0, 0,
    0, 0, 0, 0, 0,
    0, 0, 0, 0, 0,
    0, 0, 0, 0, 0,
    0, 0, 0, 0, 0,
    0, 0, 0, 0, 0,
    0, 0, 0, 0, 0,
    0, 0, 0, 0, 0,
    0, 0, 0, 0, 0,
    0, 0, 0, 0, 0,
    0, 0, 0, 0, 0,
    0, 0, 0, 0, 0,
    0, 0, 0, 0, 0,
    0, 0, 0, 0, 0,
    0, 0, 0, 0, 0,
    0, 0, 0, 0, 0,
    0, 0, 0, 0, 0,
    0, 0, 0, 0, 0,
    0, 0, 0, 0, 0,
    0, 0, 0, 0, 0,
    0, 0, 0, 0, 0,
    0, 0, 0, 0, 0,
    0, 0, 0, 0, 0,
    0, 0, 0, 0, 0,
    0, 0, 0, 0, 0,
    0, 0, 0, 0, 0,
    0, 0, 0, 0, 0,
    0, 0, 0, 0, 0,
    0, 0, 0, 0, 0,
    0, 0, 0, 0, 0,
    0, 0, 0, 0, 0,
    0, 0, 0, 0, 0,
    0, 0, 0, 0, 0,
    0, 0, 0, 0, 0,
    0, 0, 0, 0, 0,
    0, 0, 0, 0, 0,
    0, 0, 0, 0, 0,
    0, 0, 0, 0, 0,
    0, 0, 0, 0, 0,
    0, 0, 0, 0, 0,
    0, 0, 0, 0, 0,
    0, 0, 0, 0, 0,
    0, 0, 0, 0, 0,
    0, 0, 0, 0, 0,
    0, 0, 0, 0, 0,
    0, 0, 0, 0, 0,
    0, 0, 0, 0, 0,
    0, 0, 0, 0, 0,
    0, 0, 0, 0, 0,
    0, 0, 0, 0, 0,
    0, 0, 0, 0, 0,
    0, 0, 0, 0, 0,
    0, 0, 0, 0, 0,
    0, 0, 0, 0, 0,
    0, 0, 0, 0, 0,
    0, 0, 0, 0, 0,
    0, 0, 0, 0, 0,
    0, 0, 0, 0, 0,
    0, 0, 0, 0, 0,
    0, 0, 0, 0, 0,
    0, 0, 0, 0, 0,
    0, 0, 0, 0, 0,
    0, 0, 0, 0, 0,
    0, 0, 0, 0, 0,
    0, 0, 0, 0, 0,
    0, 0, 0, 0, 0,
    0, 0, 0, 0, 0,
    0, 0, 0, 0, 0,
    0, 0, 0, 0, 0,
    0, 0, 0, 0, 0,
    0, 0, 0, 0, 0,
    0, 0, 0, 0, 0,
    0, 0, 0, 0, 0,
    0, 0, 0, 0, 0,
    0, 0, 0, 0, 0,
    0, 0, 0, 0, 0,
    0, 0, 0, 0, 0,
    0, 0, 0, 0, 0,
    0, 0, 0, 0, 0,
    0, 0, 0, 0, 0,
    0, 0, 0, 0, 0,
    0, 0, 0, 0, 0,
    0, 0, 0, 0, 0,
    0, 0, 0, 0, 0,
    0, 0, 0, 0, 0,
    0, 0, 0, 0, 0,
    0, 0, 0, 0, 0,
    0, 0, 0, 0, 0,
    0, 0, 0, 0, 0,
    0, 0, 0, 0, 0,
    0, 0, 0, 0, 0,
    0, 0, 0, 0, 0,
    0, 0, 0, 0, 0,
    0, 0, 0, 0, 0,
    0, 0, 0, 0, 0,
    0, 0, 0, 0, 0,
    0, 0, 0, 0, 0,
    0, 0, 0, 0, 0,
    0, 0, 0, 0, 0,
    0, 0, 0, 0, 0,
    0, 0, 0, 0, 0,
    0, 0, 0, 0, 0,
    0, 0, 0, 0, 0,
    0, 0, 0, 0, 0,
    0, 0, 0, 0, 0,
    0, 0, 0, 0, 0,
    0, 0, 0, 0, 0,
    0, 0, 0, 0, 0,
    0, 0, 0, 0, 0,
    0, 0, 0, 0, 0,
    0, 0, 0, 0, 0,
    0, 0, 0, 0, 0,
    0, 0, 0, 0, 0,
    0, 0, 0, 0, 0,
    0, 0, 0, 0, 0,
    0, 0, 0, 0, 0,
    0, 0, 0, 0, 0,
    0, 0, 0, 0, 0,
    0, 0, 0, 0, 0,
    0, 0, 0, 0, 0,
    0, 0, 0, 0, 0,
    0, 0, 0, 0, 0,
    0, 0, 0, 0, 0,
    0, 0, 0, 0, 0,
    0, 0, 0, 0, 0,
    0, 0, 0, 0, 0,
    0, 0, 0, 0, 0,
    0, 0, 0, 0, 0,
    0, 0, 0, 0, 0,
    0, 0, 0, 0, 0,
    0, 0, 0, 0, 0,
    0, 0, 0, 0, 0,
    0, 0, 0, 0, 0,
    0, 0, 0, 0, 0,
    0, 0, 0, 0, 0,
    0, 0, 0, 0, 0,
    0, 0, 0, 0, 0,
    0, 0, 0, 0, 0,
    0, 0, 0, 0, 0,
    0, 0, 0, 0, 0,
    0, 0, 0, 0, 0,
    0, 0, 0, 0, 0,
    0, 0, 0, 0, 0,
    0, 0, 0, 0, 0,
    0, 0, 0, 0, 0,
    0, 0, 0, 0, 0,
    0, 0, 0, 0, 0,
    0, 0, 0, 0, 0,
    0, 0, 0, 0, 0,
    0, 0, 0, 0, 0,
    0, 0, 0, 0, 0,
    0, 0, 0, 0, 0,
    0, 0, 0, 0, 0,
    0, 0, 0, 0, 0,
    0, 0, 0, 0, 0,
    0, 0, 0, 0, 0,
    0, 0, 0, 0, 0,
    0, 0, 0, 0, 0,
    0, 0, 0, 0, 0,
    0, 0, 0, 0, 0,
    0, 0, 0, 0, 0,
    0, 0, 0, 0, 0,
    0, 0, 0, 0, 0,
    0, 0, 0, 0, 0,
    0, 0, 0, 0, 0,
    0, 0, 0, 0, 0,
    0, 0, 0, 0, 0,
    0, 0, 0, 0, 0,
    0, 0, 0, 0, 0,
    0, 0, 0, 0, 0,
    0, 0, 0, 0, 0,
    0, 0, 0, 0, 0,
    0, 0, 0, 0, 0,
    0, 0, 0, 0, 0,
    0, 0, 0, 0, 0,
    0, 0, 0, 0, 0,
    0, 0, 0, 0, 0,
    0, 0, 0, 0, 0,
    0, 0, 0, 0, 0,
    0, 0, 0, 0, 0,

  % k = 4
    0, 0, 0, 0, 0,
    0, 0, 0, 0, 0,
    0, 0, 0, 0, 0,
    0, 0, 0, 0, 0,
    0, 0, 0, 0, 0,
    0, 0, 0, 0, 0,
    0, 0, 0, 0, 0,
    0, 0, 0, 0, 0,
    0, 0, 0, 0, 0,
    0, 0, 0, 0, 0,
    0, 0, 0, 0, 0,
    0, 0, 0, 0, 0,
    0, 0, 0, 0, 0,
    0, 0, 0, 0, 0,
    0, 0, 0, 0, 0,
    0, 0, 0, 0, 0,
    0, 0, 0, 0, 0,
    0, 0, 0, 0, 0,
    0, 0, 0, 0, 0,
    0, 0, 0, 0, 0,
    0, 0, 0, 0, 0,
    0, 0, 0, 0, 0,
    0, 0, 0, 0, 0,
    0, 0, 0, 0, 0,
    0, 0, 0, 0, 0,
    0, 0, 0, 0, 0,
    0, 0, 0, 0, 0,
    0, 0, 0, 0, 0,
    0, 0, 0, 0, 0,
    0, 0, 0, 0, 0,
    0, 0, 0, 0, 0,
    0, 0, 0, 0, 0,
    0, 0, 0, 0, 0,
    0, 0, 0, 0, 0,
    0, 0, 0, 0, 0,
    0, 0, 0, 0, 0,
    0, 0, 0, 0, 0,
    0, 0, 0, 0, 0,
    0, 0, 0, 0, 0,
    0, 0, 0, 0, 0,
    0, 0, 0, 0, 0,
    0, 0, 0, 0, 0,
    0, 0, 0, 0, 0,
    0, 0, 0, 0, 0,
    0, 0, 0, 0, 0,
    0, 0, 0, 0, 0,
    0, 0, 0, 0, 0,
    0, 0, 0, 0, 0,
    0, 0, 0, 0, 0,
    0, 0, 0, 0, 0,
    0, 0, 0, 0, 0,
    0, 0, 0, 0, 0,
    0, 0, 0, 0, 0,
    0, 0, 0, 0, 0,
    0, 0, 0, 0, 0,
    0, 0, 0, 0, 0,
    0, 0, 0, 0, 0,
    0, 0, 0, 0, 0,
    0, 0, 0, 0, 0,
    0, 0, 0, 0, 0,
    0, 0, 0, 0, 0,
    0, 0, 0, 0, 0,
    0, 0, 0, 0, 0,
    0, 0, 0, 0, 0,
    0, 0, 0, 0, 0,
    0, 0, 0, 0, 0,
    0, 0, 0, 0, 0,
    0, 0, 0, 0, 0,
    0, 0, 0, 0, 0,
    0, 0, 0, 0, 0,
    0, 0, 0, 0, 0,
    0, 0, 0, 0, 0,
    0, 0, 0, 0, 0,
    0, 0, 0, 0, 0,
    0, 0, 0, 0, 0,
    0, 0, 0, 0, 0,
    0, 0, 0, 0, 0,
    0, 0, 0, 0, 0,
    0, 0, 0, 0, 0,
    0, 0, 0, 0, 0,
    0, 0, 0, 0, 0,
    0, 0, 0, 0, 0,
    0, 0, 0, 0, 0,
    0, 0, 0, 0, 0,
    0, 0, 0, 0, 0,
    0, 0, 0, 0, 0,
    0, 0, 0, 0, 0,
    0, 0, 0, 0, 0,
    0, 0, 0, 0, 0,
    0, 0, 0, 0, 0,
    0, 0, 0, 0, 0,
    0, 0, 0, 0, 0,
    0, 0, 0, 0, 0,
    0, 0, 0, 0, 0,
    0, 0, 0, 0, 0,
    0, 0, 0, 0, 0,
    0, 0, 0, 0, 0,
    0, 0, 0, 0, 0,
    0, 0, 0, 0, 0,
    0, 0, 0, 0, 0,
    0, 0, 0, 0, 0,
    0, 0, 0, 0, 0,
    0, 0, 0, 0, 0,
    0, 0, 0, 0, 0,
    0, 0, 0, 0, 0,
    0, 0, 0, 0, 0,
    0, 0, 0, 0, 0,
    0, 0, 0, 0, 0,
    0, 0, 0, 0, 0,
    0, 0, 0, 0, 0,
    0, 0, 0, 0, 0,
    0, 0, 0, 0, 0,
    0, 0, 0, 0, 0,
    0, 0, 0, 0, 0,
    0, 0, 0, 0, 0,
    0, 0, 0, 0, 0,
    0, 0, 0, 0, 0,
    0, 0, 0, 0, 0,
    0, 0, 0, 0, 0,
    0, 0, 0, 0, 0,
    0, 0, 0, 0, 0,
    0, 0, 0, 0, 0,
    0, 0, 0, 0, 0,
    0, 0, 0, 0, 0,
    0, 0, 0, 0, 0,
    0, 0, 0, 0, 0,
    0, 0, 0, 0, 0,
    0, 0, 0, 0, 0,
    0, 0, 0, 0, 0,
    0, 0, 0, 0, 0,
    0, 0, 0, 0, 0,
    0, 0, 0, 0, 0,
    0, 0, 0, 0, 0,
    0, 0, 0, 0, 0,
    0, 0, 0, 0, 0,
    0, 0, 0, 0, 0,
    0, 0, 0, 0, 0,
    0, 0, 0, 0, 0,
    0, 0, 0, 0, 0,
    0, 0, 0, 0, 0,
    0, 0, 0, 0, 0,
    0, 0, 0, 0, 0,
    0, 0, 0, 0, 0,
    0, 0, 0, 0, 0,
    0, 0, 0, 0, 0,
    0, 0, 0, 0, 0,
    0, 0, 0, 0, 0,
    0, 0, 0, 0, 0,
    0, 0, 0, 0, 0,
    0, 0, 0, 0, 0,
    0, 0, 0, 0, 0,
    0, 0, 0, 0, 0,
    0, 0, 0, 0, 0,
    0, 0, 0, 0, 0,
    0, 0, 0, 0, 0,
    0, 0, 0, 0, 0,
    0, 0, 0, 0, 0,
    0, 0, 0, 0, 0,
    0, 0, 0, 0, 0,
    0, 0, 0, 0, 0,
    0, 0, 0, 0, 0,
    0, 0, 0, 0, 0,
    0, 0, 0, 0, 0,
    0, 0, 0, 0, 0,
    0, 0, 0, 0, 0,
    0, 0, 0, 0, 0,
    0, 0, 0, 0, 0,
    0, 0, 0, 0, 0,
    0, 0, 0, 0, 0,
    0, 0, 0, 0, 0,
    0, 0, 0, 0, 0,
    0, 0, 0, 0, 0,
    0, 0, 0, 0, 0,
    0, 0, 0, 0, 0,
    0, 0, 0, 0, 0,
    0, 0, 0, 0, 0,
    0, 0, 0, 0, 0,
    0, 0, 0, 0, 0,
    0, 0, 0, 0, 0,
    0, 0, 0, 0, 0,
    0, 0, 0, 0, 0,
    0, 0, 0, 0, 0,
    0, 0, 0, 0, 0,
    0, 0, 0, 0, 0,
    0, 0, 0, 0, 0,
    0, 0, 0, 0, 0,
    0, 0, 0, 0, 0,
    0, 0, 0, 0, 0,
    0, 0, 0, 0, 0,
    0, 0, 0, 0, 0,
    0, 0, 0, 0, 0,
    0, 0, 0, 0, 0,
    0, 0, 0, 0, 0,
    0, 0, 0, 0, 0,
    0, 0, 0, 0, 0,
    0, 0, 0, 0, 0
]);
d_nfa = array3d(1..4, 1..196, 1..5, [
  % k = 1
    {3, 14, 42, 49, 78, 83, 91, 98}, {2, 13, 41, 48, 77, 82, 90, 97}, {2, 13, 41, 48, 77, 82, 90, 97}, {2, 13, 41, 48, 77, 82, 90, 97}, {2, 13, 41, 48, 77, 82, 90, 97},
    {3}, {2}, {2}, {2}, {2},
    {4}, {}, {}, {}, {},
    {5}, {}, {}, {}, {},
    {}, {6}, {6}, {6}, {6},
    {}, {7}, {7}, {7}, {7},
    {8}, {}, {}, {}, {},
    {9}, {}, {}, {}, {},
    {10}, {}, {}, {}, {},
    {11}, {}, {}, {}, {},
    {12}, {}, {}, {}, {},
    {}, {12}, {12}, {12}, {12},
    {14}, {13}, {13}, {13}, {13},
    {}, {15}, {15}, {15}, {15},
    {}, {16}, {16}, {16}, {16},
    {}, {17}, {17}, {17}, {17},
    {}, {18}, {18}, {18}, {18},
    {}, {19}, {19}, {19}, {19},
    {}, {20}, {20}, {20}, {20},
    {21}, {}, {}, {}, {},
    {}, {22}, {22}, {22}, {22},
    {}, {23}, {23}, {23}, {23},
    {}, {24}, {24}, {24}, {24},
    {}, {25}, {25}, {25}, {25},
    {}, {26}, {26}, {26}, {26},
    {}, {27}, {27}, {27}, {27},
    {28}, {}, {}, {}, {},
    {29}, {}, {}, {}, {},
    {}, {30}, {30}, {30}, {30},
    {}, {31}, {31}, {31}, {31},
    {}, {32}, {32}, {32}, {32},
    {}, {33}, {33}, {33}, {33},
    {}, {34}, {34}, {34}, {34},
    {35}, {}, {}, {}, {},
    {36}, {}, {}, {}, {},
    {}, {37}, {37}, {37}, {37},
    {}, {38}, {38}, {38}, {38},
    {}, {39}, {39}, {39}, {39},
    {}, {40}, {40}, {40}, {40},
    {}, {10}, {10}, {10}, {10},
    {42}, {41}, {41}, {41}, {41},
    {43}, {}, {}, {}, {},
    {44}, {}, {}, {}, {},
    {45}, {}, {}, {}, {},
    {46}, {}, {}, {}, {},
    {}, {47}, {47}, {47}, {47},
    {}, {9}, {9}, {9}, {9},
    {49}, {48}, {48}, {48}, {48},
    {50}, {}, {}, {}, {},
    {}, {51}, {51}, {51}, {51},
    {}, {52}, {52}, {52}, {52},
    {}, {53}, {53}, {53}, {53},
    {}, {54}, {54}, {54}, {54},
    {}, {55}, {55}, {55}, {55},
    {56}, {}, {}, {}, {},
    {57}, {}, {}, {}, {},
    {}, {58}, {58}, {58}, {58},
    {}, {59}, {59}, {59}, {59},
    {}, {60}, {60}, {60}, {60},
    {}, {61}, {61}, {61}, {61},
    {}, {62}, {62}, {62}, {62},
    {63}, {}, {}, {}, {},
    {64}, {}, {}, {}, {},
    {}, {65}, {65}, {65}, {65},
    {}, {66}, {66}, {66}, {66},
    {}, {67}, {67}, {67}, {67},
    {}, {68}, {68}, {68}, {68},
    {}, {69}, {69}, {69}, {69},
    {}, {70}, {70}, {70}, {70},
    {71}, {}, {}, {}, {},
    {}, {72}, {72}, {72}, {72},
    {}, {73}, {73}, {73}, {73},
    {}, {74}, {74}, {74}, {74},
    {}, {75}, {75}, {75}, {75},
    {}, {76}, {76}, {76}, {76},
    {}, {11}, {11}, {11}, {11},
    {78}, {77}, {77}, {77}, {77},
    {79}, {}, {}, {}, {},
    {80}, {}, {}, {}, {},
    {}, {81}, {81}, {81}, {81},
    {}, {5}, {5}, {5}, {5},
    {83}, {82}, {82}, {82}, {82},
    {}, {84}, {84}, {84}, {84},
    {}, {85}, {85}, {85}, {85},
    {}, {86}, {86}, {86}, {86},
    {}, {87}, {87}, {87}, {87},
    {}, {88}, {88}, {88}, {88},
    {}, {89}, {89}, {89}, {89},
    {22}, {}, {}, {}, {},
    {91}, {90}, {90}, {90}, {90},
    {92}, {}, {}, {}, {},
    {93}, {}, {}, {}, {},
    {94}, {}, {}, {}, {},
    {95}, {}, {}, {}, {},
    {}, {96}, {96}, {96}, {96},
    {}, {46}, {46}, {46}, {46},
    {98}, {97}, {97}, {97}, {97},
    {99}, {}, {}, {}, {},
    {}, {100}, {100}, {100}, {100},
    {}, {101}, {101}, {101}, {101},
    {}, {102}, {102}, {102}, {102},
    {}, {103}, {103}, {103}, {103},
    {}, {104}, {104}, {104}, {104},
    {105}, {}, {}, {}, {},
    {106}, {}, {}, {}, {},
    {}, {107}, {107}, {107}, {107},
    {}, {108}, {108}, {108}, {108},
    {}, {109}, {109}, {109}, {109},
    {}, {110}, {110}, {110}, {110},
    {}, {111}, {111}, {111}, {111},
    {112}, {}, {}, {}, {},
    {65}, {}, {}, {}, {},
    {}, {}, {}, {}, {},
    {}, {}, {}, {}, {},
    {}, {}, {}, {}, {},
    {}, {}, {}, {}, {},
    {}, {}, {}, {}, {},
    {}, {}, {}, {}, {},
    {}, {}, {}, {}, {},
    {}, {}, {}, {}, {},
    {}, {}, {}, {}, {},
    {}, {}, {}, {}, {},
    {}, {}, {}, {}, {},
    {}, {}, {}, {}, {},
    {}, {}, {}, {}, {},
    {}, {}, {}, {}, {},
    {}, {}, {}, {}, {},
    {}, {}, {}, {}, {},
    {}, {}, {}, {}, {},
    {}, {}, {}, {}, {},
    {}, {}, {}, {}, {},
    {}, {}, {}, {}, {},
    {}, {}, {}, {}, {},
    {}, {}, {}, {}, {},
    {}, {}, {}, {}, {},
    {}, {}, {}, {}, {},
    {}, {}, {}, {}, {},
    {}, {}, {}, {}, {},
    {}, {}, {}, {}, {},
    {}, {}, {}, {}, {},
    {}, {}, {}, {}, {},
    {}, {}, {}, {}, {},
    {}, {}, {}, {}, {},
    {}, {}, {}, {}, {},
    {}, {}, {}, {}, {},
    {}, {}, {}, {}, {},
    {}, {}, {}, {}, {},
    {}, {}, {}, {}, {},
    {}, {}, {}, {}, {},
    {}, {}, {}, {}, {},
    {}, {}, {}, {}, {},
    {}, {}, {}, {}, {},
    {}, {}, {}, {}, {},
    {}, {}, {}, {}, {},
    {}, {}, {}, {}, {},
    {}, {}, {}, {}, {},
    {}, {}, {}, {}, {},
    {}, {}, {}, {}, {},
    {}, {}, {}, {}, {},
    {}, {}, {}, {}, {},
    {}, {}, {}, {}, {},
    {}, {}, {}, {}, {},
    {}, {}, {}, {}, {},
    {}, {}, {}, {}, {},
    {}, {}, {}, {}, {},
    {}, {}, {}, {}, {},
    {}, {}, {}, {}, {},
    {}, {}, {}, {}, {},
    {}, {}, {}, {}, {},
    {}, {}, {}, {}, {},
    {}, {}, {}, {}, {},
    {}, {}, {}, {}, {},
    {}, {}, {}, {}, {},
    {}, {}, {}, {}, {},
    {}, {}, {}, {}, {},
    {}, {}, {}, {}, {},
    {}, {}, {}, {}, {},
    {}, {}, {}, {}, {},
    {}, {}, {}, {}, {},
    {}, {}, {}, {}, {},
    {}, {}, {}, {}, {},
    {}, {}, {}, {}, {},
    {}, {}, {}, {}, {},
    {}, {}, {}, {}, {},
    {}, {}, {}, {}, {},
    {}, {}, {}, {}, {},
    {}, {}, {}, {}, {},
    {}, {}, {}, {}, {},
    {}, {}, {}, {}, {},
    {}, {}, {}, {}, {},
    {}, {}, {}, {}, {},
    {}, {}, {}, {}, {},
    {}, {}, {}, {}, {},
    {}, {}, {}, {}, {},
    {}, {}, {}, {}, {},
    {}, {}, {}, {}, {},

  % k = 2
    {2, 15, 42, 51, 79, 84, 93, 96}, {3, 16, 43, 52, 80, 85, 94, 97}, {2, 15, 42, 51, 79, 84, 93, 96}, {2, 15, 42, 51, 79, 84, 93, 96}, {2, 15, 42, 51, 79, 84, 93, 96},
    {2}, {3}, {2}, {2}, {2},
    {}, {4}, {}, {}, {},
    {}, {5}, {}, {}, {},
    {}, {6}, {}, {}, {},
    {}, {7}, {}, {}, {},
    {8}, {}, {8}, {8}, {8},
    {9}, {}, {9}, {9}, {9},
    {10}, {}, {10}, {10}, {10},
    {11}, {}, {11}, {11}, {11},
    {}, {12}, {}, {}, {},
    {}, {13}, {}, {}, {},
    {}, {14}, {}, {}, {},
    {14}, {}, {14}, {14}, {14},
    {15}, {16}, {15}, {15}, {15},
    {17}, {}, {17}, {17}, {17},
    {18}, {}, {18}, {18}, {18},
    {19}, {}, {19}, {19}, {19},
    {20}, {}, {20}, {20}, {20},
    {21}, {}, {21}, {21}, {21},
    {22}, {}, {22}, {22}, {22},
    {}, {23}, {}, {}, {},
    {24}, {}, {24}, {24}, {24},
    {25}, {}, {25}, {25}, {25},
    {26}, {}, {26}, {26}, {26},
    {27}, {}, {27}, {27}, {27},
    {28}, {}, {28}, {28}, {28},
    {}, {29}, {}, {}, {},
    {}, {30}, {}, {}, {},
    {31}, {}, {31}, {31}, {31},
    {32}, {}, {32}, {32}, {32},
    {33}, {}, {33}, {33}, {33},
    {34}, {}, {34}, {34}, {34},
    {35}, {}, {35}, {35}, {35},
    {}, {36}, {}, {}, {},
    {}, {37}, {}, {}, {},
    {38}, {}, {38}, {38}, {38},
    {39}, {}, {39}, {39}, {39},
    {40}, {}, {40}, {40}, {40},
    {41}, {}, {41}, {41}, {41},
    {12}, {}, {12}, {12}, {12},
    {42}, {43}, {42}, {42}, {42},
    {}, {44}, {}, {}, {},
    {}, {45}, {}, {}, {},
    {46}, {}, {46}, {46}, {46},
    {47}, {}, {47}, {47}, {47},
    {48}, {}, {48}, {48}, {48},
    {49}, {}, {49}, {49}, {49},
    {}, {50}, {}, {}, {},
    {}, {11}, {}, {}, {},
    {51}, {52}, {51}, {51}, {51},
    {}, {53}, {}, {}, {},
    {54}, {}, {54}, {54}, {54},
    {55}, {}, {55}, {55}, {55},
    {56}, {}, {56}, {56}, {56},
    {57}, {}, {57}, {57}, {57},
    {58}, {}, {58}, {58}, {58},
    {}, {59}, {}, {}, {},
    {}, {60}, {}, {}, {},
    {61}, {}, {61}, {61}, {61},
    {62}, {}, {62}, {62}, {62},
    {63}, {}, {63}, {63}, {63},
    {64}, {}, {64}, {64}, {64},
    {65}, {}, {65}, {65}, {65},
    {}, {66}, {}, {}, {},
    {}, {67}, {}, {}, {},
    {68}, {}, {68}, {68}, {68},
    {69}, {}, {69}, {69}, {69},
    {70}, {}, {70}, {70}, {70},
    {71}, {}, {71}, {71}, {71},
    {72}, {}, {72}, {72}, {72},
    {}, {73}, {}, {}, {},
    {74}, {}, {74}, {74}, {74},
    {75}, {}, {75}, {75}, {75},
    {76}, {}, {76}, {76}, {76},
    {77}, {}, {77}, {77}, {77},
    {78}, {}, {78}, {78}, {78},
    {13}, {}, {13}, {13}, {13},
    {79}, {80}, {79}, {79}, {79},
    {}, {81}, {}, {}, {},
    {}, {82}, {}, {}, {},
    {}, {83}, {}, {}, {},
    {}, {9}, {}, {}, {},
    {84}, {85}, {84}, {84}, {84},
    {86}, {}, {86}, {86}, {86},
    {87}, {}, {87}, {87}, {87},
    {88}, {}, {88}, {88}, {88},
    {89}, {}, {89}, {89}, {89},
    {90}, {}, {90}, {90}, {90},
    {91}, {}, {91}, {91}, {91},
    {}, {92}, {}, {}, {},
    {23}, {}, {23}, {23}, {23},
    {93}, {94}, {93}, {93}, {93},
    {}, {95}, {}, {}, {},
    {}, {47}, {}, {}, {},
    {96}, {97}, {96}, {96}, {96},
    {}, {98}, {}, {}, {},
    {99}, {}, {99}, {99}, {99},
    {100}, {}, {100}, {100}, {100},
    {101}, {}, {101}, {101}, {101},
    {102}, {}, {102}, {102}, {102},
    {103}, {}, {103}, {103}, {103},
    {}, {104}, {}, {}, {},
    {}, {105}, {}, {}, {},
    {106}, {}, {106}, {106}, {106},
    {107}, {}, {107}, {107}, {107},
    {108}, {}, {108}, {108}, {108},
    {109}, {}, {109}, {109}, {109},
    {110}, {}, {110}, {110}, {110},
    {}, {111}, {}, {}, {},
    {}, {112}, {}, {}, {},
    {67}, {}, {67}, {67}, {67},
    {}, {}, {}, {}, {},
    {}, {}, {}, {}, {},
    {}, {}, {}, {}, {},
    {}, {}, {}, {}, {},
    {}, {}, {}, {}, {},
    {}, {}, {}, {}, {},
    {}, {}, {}, {}, {},
    {}, {}, {}, {}, {},
    {}, {}, {}, {}, {},
    {}, {}, {}, {}, {},
    {}, {}, {}, {}, {},
    {}, {}, {}, {}, {},
    {}, {}, {}, {}, {},
    {}, {}, {}, {}, {},
    {}, {}, {}, {}, {},
    {}, {}, {}, {}, {},
    {}, {}, {}, {}, {},
    {}, {}, {}, {}, {},
    {}, {}, {}, {}, {},
    {}, {}, {}, {}, {},
    {}, {}, {}, {}, {},
    {}, {}, {}, {}, {},
    {}, {}, {}, {}, {},
    {}, {}, {}, {}, {},
    {}, {}, {}, {}, {},
    {}, {}, {}, {}, {},
    {}, {}, {}, {}, {},
    {}, {}, {}, {}, {},
    {}, {}, {}, {}, {},
    {}, {}, {}, {}, {},
    {}, {}, {}, {}, {},
    {}, {}, {}, {}, {},
    {}, {}, {}, {}, {},
    {}, {}, {}, {}, {},
    {}, {}, {}, {}, {},
    {}, {}, {}, {}, {},
    {}, {}, {}, {}, {},
    {}, {}, {}, {}, {},
    {}, {}, {}, {}, {},
    {}, {}, {}, {}, {},
    {}, {}, {}, {}, {},
    {}, {}, {}, {}, {},
    {}, {}, {}, {}, {},
    {}, {}, {}, {}, {},
    {}, {}, {}, {}, {},
    {}, {}, {}, {}, {},
    {}, {}, {}, {}, {},
    {}, {}, {}, {}, {},
    {}, {}, {}, {}, {},
    {}, {}, {}, {}, {},
    {}, {}, {}, {}, {},
    {}, {}, {}, {}, {},
    {}, {}, {}, {}, {},
    {}, {}, {}, {}, {},
    {}, {}, {}, {}, {},
    {}, {}, {}, {}, {},
    {}, {}, {}, {}, {},
    {}, {}, {}, {}, {},
    {}, {}, {}, {}, {},
    {}, {}, {}, {}, {},
    {}, {}, {}, {}, {},
    {}, {}, {}, {}, {},
    {}, {}, {}, {}, {},
    {}, {}, {}, {}, {},
    {}, {}, {}, {}, {},
    {}, {}, {}, {}, {},
    {}, {}, {}, {}, {},
    {}, {}, {}, {}, {},
    {}, {}, {}, {}, {},
    {}, {}, {}, {}, {},
    {}, {}, {}, {}, {},
    {}, {}, {}, {}, {},
    {}, {}, {}, {}, {},
    {}, {}, {}, {}, {},
    {}, {}, {}, {}, {},
    {}, {}, {}, {}, {},
    {}, {}, {}, {}, {},
    {}, {}, {}, {}, {},
    {}, {}, {}, {}, {},
    {}, {}, {}, {}, {},
    {}, {}, {}, {}, {},
    {}, {}, {}, {}, {},
    {}, {}, {}, {}, {},
    {}, {}, {}, {}, {},

  % k = 3
    {2, 39, 66, 94, 125, 144, 163, 189}, {2, 39, 66, 94, 125, 144, 163, 189}, {3, 40, 67, 95, 126, 145, 164, 190}, {2, 39, 66, 94, 125, 144, 163, 189}, {2, 39, 66, 94, 125, 144, 163, 189},
    {2}, {2}, {3}, {2}, {2},
    {4}, {4}, {}, {4}, {4},
    {5}, {5}, {}, {5}, {5},
    {6}, {6}, {}, {6}, {6},
    {7}, {7}, {}, {7}, {7},
    {8}, {8}, {}, {8}, {8},
    {9}, {9}, {}, {9}, {9},
    {}, {}, {10}, {}, {},
    {}, {}, {11}, {}, {},
    {}, {}, {12}, {}, {},
    {13}, {13}, {}, {13}, {13},
    {14}, {14}, {}, {14}, {14},
    {15}, {15}, {}, {15}, {15},
    {16}, {16}, {}, {16}, {16},
    {}, {}, {17}, {}, {},
    {}, {}, {18}, {}, {},
    {}, {}, {19}, {}, {},
    {}, {}, {20}, {}, {},
    {}, {}, {21}, {}, {},
    {22}, {22}, {}, {22}, {22},
    {23}, {23}, {}, {23}, {23},
    {}, {}, {24}, {}, {},
    {}, {}, {25}, {}, {},
    {}, {}, {26}, {}, {},
    {27}, {27}, {}, {27}, {27},
    {28}, {28}, {}, {28}, {28},
    {29}, {29}, {}, {29}, {29},
    {30}, {30}, {}, {30}, {30},
    {}, {}, {31}, {}, {},
    {}, {}, {32}, {}, {},
    {}, {}, {33}, {}, {},
    {34}, {34}, {}, {34}, {34},
    {35}, {35}, {}, {35}, {35},
    {36}, {36}, {}, {36}, {36},
    {37}, {37}, {}, {37}, {37},
    {}, {}, {38}, {}, {},
    {38}, {38}, {}, {38}, {38},
    {39}, {39}, {40}, {39}, {39},
    {}, {}, {41}, {}, {},
    {}, {}, {42}, {}, {},
    {}, {}, {43}, {}, {},
    {}, {}, {44}, {}, {},
    {}, {}, {45}, {}, {},
    {46}, {46}, {}, {46}, {46},
    {47}, {47}, {}, {47}, {47},
    {}, {}, {48}, {}, {},
    {}, {}, {49}, {}, {},
    {}, {}, {50}, {}, {},
    {}, {}, {51}, {}, {},
    {52}, {52}, {}, {52}, {52},
    {53}, {53}, {}, {53}, {53},
    {54}, {54}, {}, {54}, {54},
    {}, {}, {55}, {}, {},
    {}, {}, {56}, {}, {},
    {}, {}, {57}, {}, {},
    {}, {}, {58}, {}, {},
    {59}, {59}, {}, {59}, {59},
    {60}, {60}, {}, {60}, {60},
    {61}, {61}, {}, {61}, {61},
    {62}, {62}, {}, {62}, {62},
    {63}, {63}, {}, {63}, {63},
    {}, {}, {64}, {}, {},
    {65}, {65}, {}, {65}, {65},
    {33}, {33}, {}, {33}, {33},
    {66}, {66}, {67}, {66}, {66},
    {68}, {68}, {}, {68}, {68},
    {69}, {69}, {}, {69}, {69},
    {70}, {70}, {}, {70}, {70},
    {71}, {71}, {}, {71}, {71},
    {}, {}, {72}, {}, {},
    {}, {}, {73}, {}, {},
    {}, {}, {74}, {}, {},
    {75}, {75}, {}, {75}, {75},
    {76}, {76}, {}, {76}, {76},
    {77}, {77}, {}, {77}, {77},
    {78}, {78}, {}, {78}, {78},
    {}, {}, {79}, {}, {},
    {}, {}, {80}, {}, {},
    {}, {}, {81}, {}, {},
    {82}, {82}, {}, {82}, {82},
    {83}, {83}, {}, {83}, {83},
    {}, {}, {84}, {}, {},
    {}, {}, {85}, {}, {},
    {}, {}, {86}, {}, {},
    {}, {}, {87}, {}, {},
    {}, {}, {88}, {}, {},
    {89}, {89}, {}, {89}, {89},
    {90}, {90}, {}, {90}, {90},
    {91}, {91}, {}, {91}, {91},
    {92}, {92}, {}, {92}, {92},
    {}, {}, {93}, {}, {},
    {}, {}, {63}, {}, {},
    {94}, {94}, {95}, {94}, {94},
    {96}, {96}, {}, {96}, {96},
    {97}, {97}, {}, {97}, {97},
    {98}, {98}, {}, {98}, {98},
    {99}, {99}, {}, {99}, {99},
    {100}, {100}, {}, {100}, {100},
    {101}, {101}, {}, {101}, {101},
    {}, {}, {102}, {}, {},
    {103}, {103}, {}, {103}, {103},
    {104}, {104}, {}, {104}, {104},
    {105}, {105}, {}, {105}, {105},
    {106}, {106}, {}, {106}, {106},
    {107}, {107}, {}, {107}, {107},
    {}, {}, {108}, {}, {},
    {}, {}, {109}, {}, {},
    {}, {}, {110}, {}, {},
    {}, {}, {111}, {}, {},
    {112}, {112}, {}, {112}, {112},
    {113}, {113}, {}, {113}, {113},
    {114}, {114}, {}, {114}, {114},
    {}, {}, {115}, {}, {},
    {}, {}, {116}, {}, {},
    {}, {}, {117}, {}, {},
    {}, {}, {118}, {}, {},
    {119}, {119}, {}, {119}, {119},
    {120}, {120}, {}, {120}, {120},
    {}, {}, {121}, {}, {},
    {}, {}, {122}, {}, {},
    {}, {}, {123}, {}, {},
    {}, {}, {124}, {}, {},
    {}, {}, {37}, {}, {},
    {125}, {125}, {126}, {125}, {125},
    {127}, {127}, {}, {127}, {127},
    {128}, {128}, {}, {128}, {128},
    {129}, {129}, {}, {129}, {129},
    {130}, {130}, {}, {130}, {130},
    {}, {}, {131}, {}, {},
    {}, {}, {132}, {}, {},
    {}, {}, {133}, {}, {},
    {134}, {134}, {}, {134}, {134},
    {135}, {135}, {}, {135}, {135},
    {}, {}, {136}, {}, {},
    {}, {}, {137}, {}, {},
    {}, {}, {138}, {}, {},
    {}, {}, {139}, {}, {},
    {}, {}, {140}, {}, {},
    {141}, {141}, {}, {141}, {141},
    {142}, {142}, {}, {142}, {142},
    {143}, {143}, {}, {143}, {143},
    {85}, {85}, {}, {85}, {85},
    {144}, {144}, {145}, {144}, {144},
    {}, {}, {146}, {}, {},
    {}, {}, {147}, {}, {},
    {}, {}, {148}, {}, {},
    {}, {}, {149}, {}, {},
    {}, {}, {150}, {}, {},
    {151}, {151}, {}, {151}, {151},
    {152}, {152}, {}, {152}, {152},
    {}, {}, {153}, {}, {},
    {}, {}, {154}, {}, {},
    {}, {}, {155}, {}, {},
    {}, {}, {156}, {}, {},
    {157}, {157}, {}, {157}, {157},
    {158}, {158}, {}, {158}, {158},
    {159}, {159}, {}, {159}, {159},
    {}, {}, {160}, {}, {},
    {}, {}, {161}, {}, {},
    {}, {}, {162}, {}, {},
    {}, {}, {59}, {}, {},
    {163}, {163}, {164}, {163}, {163},
    {165}, {165}, {}, {165}, {165},
    {166}, {166}, {}, {166}, {166},
    {167}, {167}, {}, {167}, {167},
    {168}, {168}, {}, {168}, {168},
    {169}, {169}, {}, {169}, {169},
    {170}, {170}, {}, {170}, {170},
    {}, {}, {171}, {}, {},
    {}, {}, {172}, {}, {},
    {}, {}, {173}, {}, {},
    {174}, {174}, {}, {174}, {174},
    {175}, {175}, {}, {175}, {175},
    {176}, {176}, {}, {176}, {176},
    {177}, {177}, {}, {177}, {177},
    {}, {}, {178}, {}, {},
    {}, {}, {179}, {}, {},
    {}, {}, {180}, {}, {},
    {181}, {181}, {}, {181}, {181},
    {182}, {182}, {}, {182}, {182},
    {183}, {183}, {}, {183}, {183},
    {184}, {184}, {}, {184}, {184},
    {}, {}, {185}, {}, {},
    {}, {}, {186}, {}, {},
    {}, {}, {187}, {}, {},
    {}, {}, {188}, {}, {},
    {}, {}, {28}, {}, {},
    {189}, {189}, {190}, {189}, {189},
    {191}, {191}, {}, {191}, {191},
    {192}, {192}, {}, {192}, {192},
    {193}, {193}, {}, {193}, {193},
    {194}, {194}, {}, {194}, {194},
    {195}, {195}, {}, {195}, {195},
    {196}, {196}, {}, {196}, {196},
    {}, {}, {103}, {}, {},

  % k = 4
    {2, 11, 25, 32, 43, 46, 54, 56}, {2, 11, 25, 32, 43, 46, 54, 56}, {2, 11, 25, 32, 43, 46, 54, 56}, {3, 12, 26, 33, 44, 47, 55, 57}, {2, 11, 25, 32, 43, 46, 54, 56},
    {2}, {2}, {2}, {3}, {2},
    {4}, {4}, {4}, {}, {4},
    {5}, {5}, {5}, {}, {5},
    {6}, {6}, {6}, {}, {6},
    {7}, {7}, {7}, {}, {7},
    {}, {}, {}, {8}, {},
    {}, {}, {}, {9}, {},
    {}, {}, {}, {10}, {},
    {10}, {10}, {10}, {}, {10},
    {11}, {11}, {11}, {12}, {11},
    {13}, {13}, {13}, {}, {13},
    {14}, {14}, {14}, {}, {14},
    {15}, {15}, {15}, {}, {15},
    {16}, {16}, {16}, {}, {16},
    {17}, {17}, {17}, {}, {17},
    {18}, {18}, {18}, {}, {18},
    {}, {}, {}, {19}, {},
    {20}, {20}, {20}, {}, {20},
    {21}, {21}, {21}, {}, {21},
    {22}, {22}, {22}, {}, {22},
    {23}, {23}, {23}, {}, {23},
    {24}, {24}, {24}, {}, {24},
    {8}, {8}, {8}, {}, {8},
    {25}, {25}, {25}, {26}, {25},
    {}, {}, {}, {27}, {},
    {}, {}, {}, {28}, {},
    {29}, {29}, {29}, {}, {29},
    {30}, {30}, {30}, {}, {30},
    {31}, {31}, {31}, {}, {31},
    {9}, {9}, {9}, {}, {9},
    {32}, {32}, {32}, {33}, {32},
    {}, {}, {}, {34}, {},
    {35}, {35}, {35}, {}, {35},
    {36}, {36}, {36}, {}, {36},
    {37}, {37}, {37}, {}, {37},
    {38}, {38}, {38}, {}, {38},
    {39}, {39}, {39}, {}, {39},
    {40}, {40}, {40}, {}, {40},
    {}, {}, {}, {41}, {},
    {42}, {42}, {42}, {}, {42},
    {28}, {28}, {28}, {}, {28},
    {43}, {43}, {43}, {44}, {43},
    {45}, {45}, {45}, {}, {45},
    {3}, {3}, {3}, {}, {3},
    {46}, {46}, {46}, {47}, {46},
    {48}, {48}, {48}, {}, {48},
    {49}, {49}, {49}, {}, {49},
    {50}, {50}, {50}, {}, {50},
    {51}, {51}, {51}, {}, {51},
    {52}, {52}, {52}, {}, {52},
    {53}, {53}, {53}, {}, {53},
    {}, {}, {}, {20}, {},
    {54}, {54}, {54}, {55}, {54},
    {}, {}, {}, {40}, {},
    {56}, {56}, {56}, {57}, {56},
    {}, {}, {}, {35}, {},
    {}, {}, {}, {}, {},
    {}, {}, {}, {}, {},
    {}, {}, {}, {}, {},
    {}, {}, {}, {}, {},
    {}, {}, {}, {}, {},
    {}, {}, {}, {}, {},
    {}, {}, {}, {}, {},
    {}, {}, {}, {}, {},
    {}, {}, {}, {}, {},
    {}, {}, {}, {}, {},
    {}, {}, {}, {}, {},
    {}, {}, {}, {}, {},
    {}, {}, {}, {}, {},
    {}, {}, {}, {}, {},
    {}, {}, {}, {}, {},
    {}, {}, {}, {}, {},
    {}, {}, {}, {}, {},
    {}, {}, {}, {}, {},
    {}, {}, {}, {}, {},
    {}, {}, {}, {}, {},
    {}, {}, {}, {}, {},
    {}, {}, {}, {}, {},
    {}, {}, {}, {}, {},
    {}, {}, {}, {}, {},
    {}, {}, {}, {}, {},
    {}, {}, {}, {}, {},
    {}, {}, {}, {}, {},
    {}, {}, {}, {}, {},
    {}, {}, {}, {}, {},
    {}, {}, {}, {}, {},
    {}, {}, {}, {}, {},
    {}, {}, {}, {}, {},
    {}, {}, {}, {}, {},
    {}, {}, {}, {}, {},
    {}, {}, {}, {}, {},
    {}, {}, {}, {}, {},
    {}, {}, {}, {}, {},
    {}, {}, {}, {}, {},
    {}, {}, {}, {}, {},
    {}, {}, {}, {}, {},
    {}, {}, {}, {}, {},
    {}, {}, {}, {}, {},
    {}, {}, {}, {}, {},
    {}, {}, {}, {}, {},
    {}, {}, {}, {}, {},
    {}, {}, {}, {}, {},
    {}, {}, {}, {}, {},
    {}, {}, {}, {}, {},
    {}, {}, {}, {}, {},
    {}, {}, {}, {}, {},
    {}, {}, {}, {}, {},
    {}, {}, {}, {}, {},
    {}, {}, {}, {}, {},
    {}, {}, {}, {}, {},
    {}, {}, {}, {}, {},
    {}, {}, {}, {}, {},
    {}, {}, {}, {}, {},
    {}, {}, {}, {}, {},
    {}, {}, {}, {}, {},
    {}, {}, {}, {}, {},
    {}, {}, {}, {}, {},
    {}, {}, {}, {}, {},
    {}, {}, {}, {}, {},
    {}, {}, {}, {}, {},
    {}, {}, {}, {}, {},
    {}, {}, {}, {}, {},
    {}, {}, {}, {}, {},
    {}, {}, {}, {}, {},
    {}, {}, {}, {}, {},
    {}, {}, {}, {}, {},
    {}, {}, {}, {}, {},
    {}, {}, {}, {}, {},
    {}, {}, {}, {}, {},
    {}, {}, {}, {}, {},
    {}, {}, {}, {}, {},
    {}, {}, {}, {}, {},
    {}, {}, {}, {}, {},
    {}, {}, {}, {}, {},
    {}, {}, {}, {}, {},
    {}, {}, {}, {}, {},
    {}, {}, {}, {}, {},
    {}, {}, {}, {}, {},
    {}, {}, {}, {}, {},
    {}, {}, {}, {}, {},
    {}, {}, {}, {}, {},
    {}, {}, {}, {}, {},
    {}, {}, {}, {}, {},
    {}, {}, {}, {}, {},
    {}, {}, {}, {}, {},
    {}, {}, {}, {}, {},
    {}, {}, {}, {}, {},
    {}, {}, {}, {}, {},
    {}, {}, {}, {}, {},
    {}, {}, {}, {}, {},
    {}, {}, {}, {}, {},
    {}, {}, {}, {}, {},
    {}, {}, {}, {}, {},
    {}, {}, {}, {}, {},
    {}, {}, {}, {}, {},
    {}, {}, {}, {}, {},
    {}, {}, {}, {}, {},
    {}, {}, {}, {}, {},
    {}, {}, {}, {}, {},
    {}, {}, {}, {}, {},
    {}, {}, {}, {}, {},
    {}, {}, {}, {}, {},
    {}, {}, {}, {}, {},
    {}, {}, {}, {}, {},
    {}, {}, {}, {}, {},
    {}, {}, {}, {}, {},
    {}, {}, {}, {}, {},
    {}, {}, {}, {}, {},
    {}, {}, {}, {}, {},
    {}, {}, {}, {}, {},
    {}, {}, {}, {}, {},
    {}, {}, {}, {}, {},
    {}, {}, {}, {}, {},
    {}, {}, {}, {}, {},
    {}, {}, {}, {}, {},
    {}, {}, {}, {}, {},
    {}, {}, {}, {}, {},
    {}, {}, {}, {}, {},
    {}, {}, {}, {}, {},
    {}, {}, {}, {}, {},
    {}, {}, {}, {}, {},
    {}, {}, {}, {}, {},
    {}, {}, {}, {}, {},
    {}, {}, {}, {}, {},
    {}, {}, {}, {}, {},
    {}, {}, {}, {}, {},
    {}, {}, {}, {}, {},
    {}, {}, {}, {}, {},
    {}, {}, {}, {}, {},
    {}, {}, {}, {}, {},
    {}, {}, {}, {}, {},
    {}, {}, {}, {}, {},
    {}, {}, {}, {}, {},
    {}, {}, {}, {}, {},
    {}, {}, {}, {}, {}
]);
